p03/jfp_3.fzn
array [1..2] of int: X_INTRODUCED_56_ = [1,-1];
var 8..13: c:: output_var;
var 0..13: X_INTRODUCED_0_;
var 0..13: X_INTRODUCED_1_;
var 0..13: X_INTRODUCED_7_;
var 0..13: X_INTRODUCED_14_;
var 0..13: X_INTRODUCED_21_;
var 0..13: X_INTRODUCED_22_;
var 0..13: X_INTRODUCED_23_;
var 0..13: X_INTRODUCED_24_;
var 0..13: X_INTRODUCED_25_;
var 0..13: X_INTRODUCED_26_;
var 0..13: X_INTRODUCED_28_;
var 0..13: X_INTRODUCED_29_;
var 0..13: X_INTRODUCED_30_;
var 0..13: X_INTRODUCED_31_;
var 0..13: X_INTRODUCED_35_;
array [1..56] of var int: T:: output_array([1..4,1..2,0..6]) = [X_INTRODUCED_0_,X_INTRODUCED_1_,-1,-1,-1,-1,-1,X_INTRODUCED_7_,-1,-1,-1,-1,-1,-1,X_INTRODUCED_14_,-1,-1,-1,-1,-1,-1,X_INTRODUCED_21_,X_INTRODUCED_22_,X_INTRODUCED_23_,X_INTRODUCED_24_,X_INTRODUCED_25_,X_INTRODUCED_26_,-1,X_INTRODUCED_28_,X_INTRODUCED_29_,X_INTRODUCED_30_,X_INTRODUCED_31_,-1,-1,-1,X_INTRODUCED_35_,-1,-1,-1,-1,-1,-1,14,14,14,14,14,14,14,14,14,14,14,14,14,14];
constraint int_lin_le(X_INTRODUCED_56_,[X_INTRODUCED_1_,X_INTRODUCED_14_],-1);
constraint int_lin_le(X_INTRODUCED_56_,[X_INTRODUCED_0_,X_INTRODUCED_1_],-1);
constraint int_lin_le(X_INTRODUCED_56_,[X_INTRODUCED_14_,X_INTRODUCED_28_],-1);
constraint int_lin_le(X_INTRODUCED_56_,[X_INTRODUCED_28_,X_INTRODUCED_29_],-1);
constraint int_lin_le(X_INTRODUCED_56_,[X_INTRODUCED_29_,X_INTRODUCED_30_],-1);
constraint int_lin_le(X_INTRODUCED_56_,[X_INTRODUCED_30_,X_INTRODUCED_31_],-1);
constraint int_lin_le(X_INTRODUCED_56_,[X_INTRODUCED_7_,X_INTRODUCED_21_],-1);
constraint int_lin_le(X_INTRODUCED_56_,[X_INTRODUCED_26_,X_INTRODUCED_35_],-1);
constraint int_lin_le(X_INTRODUCED_56_,[X_INTRODUCED_21_,X_INTRODUCED_22_],-1);
constraint int_lin_le(X_INTRODUCED_56_,[X_INTRODUCED_22_,X_INTRODUCED_23_],-1);
constraint int_lin_le(X_INTRODUCED_56_,[X_INTRODUCED_23_,X_INTRODUCED_24_],-1);
constraint int_lin_le(X_INTRODUCED_56_,[X_INTRODUCED_24_,X_INTRODUCED_25_],-1);
constraint int_lin_le(X_INTRODUCED_56_,[X_INTRODUCED_25_,X_INTRODUCED_26_],-1);
solve  minimize c;
